; taskiq :: corpus-study/repo_src/taskiq/taskiq/cli/worker/run.py :: wait_for at shutdown_broker:46 :: structured encoding (verdict: sat)
; Generated by snf-pipeline (encoder.py) -- run with any
; SMT-LIB2-compliant solver, e.g. `z3 taskiq__corpus-study_repo_src_taskiq_taskiq_cli_worker_run.py__waitfor_shutdown_broker_L46__structured.smt2`
; benchmark generated from python API
(set-info :status unknown)
(declare-fun timeout_fires () Bool)
(declare-fun completes_first () Bool)
(declare-fun cleanup_ran () Bool)
(assert
 (or completes_first timeout_fires))
(assert
 (let (($x27 (not cleanup_ran)))
(and timeout_fires $x27)))
(check-sat)
